; --full-saturate-quant --inst-when=full-last-call --inst-no-entail --term-db-mode=relevant --multi-trigger-linear --no-statistics --random-seed=1 --lang=smt2 --continued-execution --tlimit 30000
(set-option :produce-unsat-cores true)
(set-logic AUFLIA)
(declare-sort N 0)
(declare-sort Sv 0)
(declare-sort Se 0)
(declare-sort Vs 0)
(declare-sort Sh 0)
(declare-sort Ss 0)
(declare-sort Sn 0)
(declare-sort Ssv 0)
(declare-fun gt (Vs Ss N Ssv Se Sh Sn Sv Sv) Bool)
(declare-fun sa () Sv)
(declare-fun ua () Sv)
(declare-fun r (Sv) Sv)
(declare-fun e () Ssv)
(declare-fun d () N)
(declare-fun s () Ss)
(declare-fun w () Sh)
(declare-fun c () Sn)
(declare-fun a () Se)
(declare-fun g () Vs)
(assert (! (not (or (gt g s d e a w c (r ua) sa) (= (r ua) sa))) :named a0))
(assert (! (gt g s d e a w c (r ua) sa) :named a1))
(check-sat)
;(get-unsat-core)
